# Solution for model Hydrovalley_0
# Objective value = 2.6262979971311368e+04
reservoir_level[0] 6.5685528470991684e+01
reservoir_level[1] 30
reservoir_level[2] 7.3075167472805560e+01
reservoir_level0[0] 50
reservoir_level0[1] 50
reservoir_level0[2] 50
inflow[0,1] 3.5419458634642908e+01
inflow[1,1] 2.0266069836348777e+01
inflow[2,1] 3.3075167472805568e+01
inflow0[0,1] 1.1703180763261230e+01
inflow0[1,1] 2.6773806986394113e+01
inflow0[2,1] 2.0320470865249007e+01
innovations[0] 0
innovations[1] 0
innovations[2] 0
outflow[0] 1.9733930163651223e+01
outflow[1] 60
outflow[2] 70
spill[0] 0
spill[1] 0
spill[2] 0
pour[0] 0
pour[1] 0
pour[2] 0
generation 1.5670732318001635e+02
thermal_gen 4.4329267681998363e+02
thermal_gen_cost 1.8664633840999180e+04
dispatch[0,0] 3.9467860327302445e-01
dispatch[0,1] 0
dispatch[0,2] 0
dispatch[1,0] 0
dispatch[1,1] 1
dispatch[1,2] 0
dispatch[2,0] 0
dispatch[2,1] 0
dispatch[2,2] 1
oracle[0][0] 1.5872346130312186e+04
